28
16
5 25 11 13 8 27 2 18 14 21 0 26 23 7 22 17 10 12 1 20 9
26 12 14 8 4 5 19 27 17 6 15 18 13 10 11 3 1 21 0 25 20 16
21 6 14 1 24 10 15 0 13 2 20 27 7 12 25 4 5 22
18 24 14 12 7 8 23 11 10 6 26 0 27 3
9 19 7 23 3 5 6
8 12 18 22 13 26 15 4 0 10 27
7 13 25 20 5 19 4 21 0 26 2 17 14 1
20 7
25 21 15 7 27 10 3 5 6 20 0 12 19 17 11 1 13 16 23 14 4 22 9
16 11 8 10 9 26 4 14 5 22 7 6 23 20 15 24 19
19 13 11 20 24 27 9 12 1 0 8
2 8 7 17 10 12 1 22 16 3 15
24 7 15 16 3 27 8 4 6 19 26 23 2 14 1 25 21 18 11 22 17 5 12
4 26 6 0 24
27 25 19 12 21 4 23 2 16 0 5 9 22 17 3 11 1 6 10 14 8 26 13
4 25 17 21
